10	36
0	1	41
0	2	19
0	3	4
0	4	17
0	7	5
0	8	21
0	9	90
1	2	41
1	3	59
1	4	6
1	5	99
1	6	68
1	7	20
1	8	22
1	9	70
2	3	89
2	4	90
2	5	67
2	6	84
2	7	33
2	8	27
3	4	48
3	6	83
3	7	6
3	8	30
3	9	16
4	6	96
4	7	38
5	6	45
5	7	88
6	7	31
6	8	6
6	9	31
7	8	34
7	9	16
8	9	66
